1 1 2 0
1 -3 -4 0
1 4 -5 0
1 -6 7 0
1 6 -8 0
1 -6 -9 0
1 -10 7 0
1 10 11 0
1 2 -9 0
1 12 -4 0
1 -12 13 0
1 -14 15 0
1 -5 -16 0
1 -17 15 0
1 -15 -17 0
1 -15 9 0
1 -18 -12 0
1 18 -9 0
1 19 -18 0
1 -19 8 0
1 20 8 0
1 21 22 0
1 21 16 0
1 23 24 0
1 -25 -24 0
1 -26 23 0
1 26 -27 0
1 -26 -28 0
1 26 -29 0
1 -30 -31 0
1 -32 33 0
1 -34 -35 0
1 -34 36 0
1 34 -30 0
1 -37 38 0
1 11 -39 0
1 11 2 0
1 40 41 0
1 38 -42 0
1 -38 30 0
1 -43 -40 0
1 -39 -44 0
1 -39 11 0
1 -31 40 0
1 31 -13 0
1 31 30 0
1 8 -4 0
1 45 -2 0
1 -46 -47 0
1 -46 48 0
1 46 42 0
1 46 -49 0
1 -50 -42 0
1 -41 51 0
1 -52 53 0
1 29 24 0
1 29 54 0
1 -55 24 0
1 -28 -26 0
1 56 57 0
1 -47 -6 0
1 -47 -29 0
1 -49 -55 0
1 49 42 0
1 49 -58 0
1 -57 59 0
1 27 59 0
1 -27 56 0
1 27 -16 0
1 59 -60 0
1 59 -61 0
1 62 -63 0
1 62 27 0
1 64 65 0
1 -64 66 0
1 61 -67 0
1 -61 68 0
1 69 -70 0
1 70 61 0
1 71 66 0
1 -72 -73 0
1 -74 75 0
1 -74 72 0
1 -76 77 0
1 76 -78 0
1 78 -76 0
1 78 -79 0
1 -75 36 0
1 -73 -77 0
1 73 -72 0
1 -80 -32 0
1 -80 81 0
1 33 78 0
1 -36 32 0
1 -36 81 0
1 82 -79 0
1 -83 84 0
1 -83 -82 0
1 85 86 0
1 81 -33 0
1 87 -88 0
1 87 89 0
1 -44 90 0
1 48 91 0
1 92 -93 0
1 -94 95 0
1 96 -44 0
1 -96 -93 0
1 -97 39 0
1 97 -43 0
1 -98 95 0
1 98 -99 0
1 100 101 0
1 101 102 0
1 101 -91 0
1 -99 -103 0
1 99 -89 0
1 -35 -48 0
1 35 -104 0
1 -105 -106 0
1 105 107 0
1 -105 -99 0
1 58 49 0
1 -108 53 0
1 -108 109 0
1 -108 110 0
1 111 -106 0
1 -111 112 0
1 -111 51 0
1 -111 99 0
1 -111 110 0
1 -112 -113 0
1 -112 -58 0
1 -110 114 0
1 -110 58 0
1 106 -100 0
1 115 116 0
1 -117 103 0
1 -117 118 0
1 -119 109 0
1 119 120 0
1 109 50 0
1 109 121 0
1 109 122 0
1 -109 -123 0
1 118 124 0
1 51 108 0
1 -51 63 0
1 53 -117 0
1 125 -64 0
1 125 -126 0
1 -125 -68 0
1 -123 -127 0
1 -128 129 0
1 130 131 0
1 -120 -119 0
1 120 130 0
1 -129 132 0
1 -129 -120 0
1 127 133 0
1 127 134 0
1 -133 128 0
1 -135 136 0
1 137 -129 0
1 -138 -131 0
1 -139 129 0
1 -60 140 0
1 -141 140 0
1 -142 -135 0
1 -143 -60 0
1 144 -145 0
1 146 -131 0
1 146 147 0
1 -148 149 0
1 150 -151 0
1 -150 144 0
1 -145 -146 0
1 -145 143 0
1 147 148 0
1 -149 139 0
1 149 140 0
1 -152 153 0
1 -152 154 0
1 155 -156 0
1 -155 -157 0
1 -155 -158 0
1 -159 -156 0
1 159 153 0
1 -160 161 0
1 -160 152 0
1 162 -163 0
1 -164 165 0
1 164 166 0
1 167 -77 0
1 168 90 0
1 166 -169 0
1 -166 -170 0
1 -169 171 0
1 -172 75 0
1 172 81 0
1 172 -168 0
1 172 173 0
1 -174 175 0
1 174 -85 0
1 -90 -175 0
1 -176 177 0
1 176 178 0
1 -176 -173 0
1 176 -90 0
1 173 -167 0
1 -165 179 0
1 -165 173 0
1 -178 -172 0
1 178 -164 0
1 175 -171 0
1 175 164 0
1 84 -180 0
1 -84 96 0
1 84 -94 0
1 95 -180 0
1 -95 173 0
1 -179 -181 0
1 179 94 0
1 182 -165 0
1 182 94 0
1 -183 90 0
1 -184 107 0
1 184 -185 0
1 186 95 0
1 186 -73 0
1 -186 187 0
1 -180 95 0
1 -180 -77 0
1 180 -188 0
1 107 -35 0
1 -185 58 0
1 189 184 0
1 -189 -108 0
1 189 -181 0
1 -189 -190 0
1 104 -183 0
1 -191 -192 0
1 -191 -182 0
1 -181 -193 0
1 194 193 0
1 -194 179 0
1 194 -181 0
1 194 -185 0
1 195 -196 0
1 197 191 0
1 -116 -197 0
1 -116 198 0
1 196 195 0
1 -199 189 0
1 -199 -200 0
1 -199 -201 0
1 -202 -116 0
1 -126 -203 0
1 -203 112 0
1 204 113 0
1 204 -205 0
1 200 -196 0
1 200 53 0
1 206 207 0
1 -208 197 0
1 209 197 0
1 209 116 0
1 210 -211 0
1 212 135 0
1 -212 109 0
1 -212 205 0
1 122 -213 0
1 134 -214 0
1 -214 -215 0
1 214 -205 0
1 -113 216 0
1 -217 218 0
1 217 -214 0
1 217 219 0
1 213 -220 0
1 221 -120 0
1 -216 -215 0
1 -222 223 0
1 224 -222 0
1 224 -225 0
1 121 -222 0
1 -225 -226 0
1 225 -140 0
1 -225 -222 0
1 -225 227 0
1 215 228 0
1 215 -221 0
1 140 -132 0
1 140 -149 0
1 229 141 0
1 229 -131 0
1 -230 231 0
1 223 232 0
1 132 -233 0
1 -132 -230 0
1 234 235 0
1 234 236 0
1 234 -222 0
1 -237 133 0
1 -238 -149 0
1 238 231 0
1 -151 -231 0
1 -239 -231 0
1 240 241 0
1 -240 239 0
1 242 -243 0
1 -242 238 0
1 243 244 0
1 243 245 0
1 246 -231 0
1 -247 248 0
1 249 250 0
1 249 -251 0
1 -251 250 0
1 251 -252 0
1 -248 253 0
1 -248 -254 0
1 -255 -256 0
1 -257 -258 0
1 257 259 0
1 -260 -261 0
1 -258 262 0
1 262 -257 0
1 261 263 0
1 -261 -264 0
1 261 265 0
1 -259 261 0
1 266 159 0
1 267 -268 0
1 267 -269 0
1 161 -159 0
1 270 271 0
1 -268 272 0
1 273 -161 0
1 273 -260 0
1 273 274 0
1 275 166 0
1 -275 -172 0
1 -275 -274 0
1 275 154 0
1 -275 -169 0
1 -156 270 0
1 -276 277 0
1 177 278 0
1 -177 -279 0
1 -177 169 0
1 269 -280 0
1 281 282 0
1 -281 275 0
1 -281 -283 0
1 284 285 0
1 -284 -286 0
1 287 271 0
1 287 276 0
1 -288 -169 0
1 -171 178 0
1 282 -269 0
1 -289 171 0
1 -277 171 0
1 -277 -289 0
1 -277 -276 0
1 278 177 0
1 278 290 0
1 279 171 0
1 -279 -160 0
1 188 -286 0
1 187 175 0
1 187 -277 0
1 -291 -292 0
1 -291 186 0
1 -291 277 0
1 293 -294 0
1 292 295 0
1 296 -297 0
1 296 163 0
1 -170 -282 0
1 -298 -184 0
1 298 -299 0
1 300 301 0
1 300 302 0
1 300 -292 0
1 300 303 0
1 300 -186 0
1 198 -181 0
1 304 -305 0
1 302 165 0
1 302 -306 0
1 302 -307 0
1 303 295 0
1 303 193 0
1 -303 293 0
1 301 308 0
1 305 -126 0
1 307 -194 0
1 -307 309 0
1 -310 -311 0
1 310 -312 0
1 310 313 0
1 -314 310 0
1 -314 -192 0
1 315 -310 0
1 -315 -307 0
1 315 -313 0
1 309 -310 0
1 309 -305 0
1 -316 317 0
1 318 -319 0
1 -318 -209 0
1 -318 -313 0
1 -211 209 0
1 -192 310 0
1 -320 321 0
1 320 201 0
1 320 322 0
1 -201 220 0
1 323 -324 0
1 325 -326 0
1 325 -327 0
1 -228 -328 0
1 329 -215 0
1 329 -228 0
1 -330 -331 0
1 -322 332 0
1 -322 -228 0
1 -333 220 0
1 333 -334 0
1 -328 -334 0
1 -226 237 0
1 226 234 0
1 -335 226 0
1 332 237 0
1 332 218 0
1 336 113 0
1 -337 235 0
1 337 -335 0
1 338 -226 0
1 338 339 0
1 340 -341 0
1 -342 -343 0
1 245 -342 0
1 227 332 0
1 227 344 0
1 345 332 0
1 345 -346 0
1 345 -340 0
1 -347 332 0
1 347 348 0
1 -347 245 0
1 349 232 0
1 -350 349 0
1 -253 -351 0
1 -352 -351 0
1 353 -256 0
1 -353 232 0
1 241 -354 0
1 351 -353 0
1 -355 356 0
1 355 -353 0
1 357 -241 0
1 357 -358 0
1 -354 256 0
1 -359 -352 0
1 -358 360 0
1 -358 353 0
1 358 361 0
1 -362 363 0
1 362 -364 0
1 362 365 0
1 366 -367 0
1 368 369 0
1 368 -370 0
1 371 -372 0
1 373 -374 0
1 375 -366 0
1 -364 376 0
1 -377 -378 0
1 -379 377 0
1 -379 -375 0
1 263 -156 0
1 263 380 0
1 -376 -381 0
1 -376 382 0
1 -376 363 0
1 -376 -383 0
1 376 364 0
1 -380 -263 0
1 380 384 0
1 -385 285 0
1 -386 375 0
1 -271 -387 0
1 285 -171 0
1 -388 389 0
1 -381 390 0
1 381 283 0
1 390 -286 0
1 265 285 0
1 -265 -376 0
1 265 -391 0
1 392 384 0
1 392 -265 0
1 -286 384 0
1 -286 -281 0
1 -283 -381 0
1 393 394 0
1 -393 395 0
1 394 283 0
1 -389 -396 0
1 272 396 0
1 -272 -294 0
1 -395 397 0
1 395 398 0
1 -395 294 0
1 299 -399 0
1 -400 -394 0
1 400 399 0
1 -280 -295 0
1 -401 -295 0
1 -401 299 0
1 402 299 0
1 -399 397 0
1 295 -308 0
1 -295 -401 0
1 308 296 0
1 308 301 0
1 308 401 0
1 -311 280 0
1 403 317 0
1 -403 -311 0
1 -404 -400 0
1 -404 -405 0
1 -290 -400 0
1 -290 406 0
1 407 -311 0
1 407 400 0
1 -408 409 0
1 408 410 0
1 -409 408 0
1 411 -317 0
1 -411 -412 0
1 411 -404 0
1 410 -408 0
1 -410 409 0
1 297 311 0
1 -297 321 0
1 297 -413 0
1 -297 -409 0
1 297 -410 0
1 414 -415 0
1 -416 417 0
1 -418 419 0
1 -418 -315 0
1 -420 421 0
1 -321 420 0
1 422 -423 0
1 306 413 0
1 412 411 0
1 412 424 0
1 421 -301 0
1 421 -425 0
1 -421 -411 0
1 426 -312 0
1 426 -325 0
1 427 -428 0
1 427 -429 0
1 427 430 0
1 431 -432 0
1 433 -434 0
1 429 -434 0
1 429 -428 0
1 428 -435 0
1 -436 -323 0
1 436 201 0
1 436 437 0
1 324 323 0
1 -324 438 0
1 -324 430 0
1 439 -433 0
1 440 -441 0
1 -440 -439 0
1 -430 -442 0
1 430 331 0
1 -430 -443 0
1 443 -439 0
1 438 -434 0
1 -438 -436 0
1 331 444 0
1 -343 -444 0
1 339 444 0
1 339 441 0
1 -339 338 0
1 441 -440 0
1 441 -445 0
1 -446 -331 0
1 444 331 0
1 -444 -447 0
1 -448 441 0
1 449 441 0
1 -449 450 0
1 -449 337 0
1 -348 -451 0
1 -445 452 0
1 -445 453 0
1 450 454 0
1 -450 348 0
1 -450 339 0
1 -452 -447 0
1 453 -455 0
1 344 456 0
1 -457 458 0
1 -459 352 0
1 -456 -460 0
1 -456 -461 0
1 451 -348 0
1 -451 462 0
1 463 348 0
1 -464 -344 0
1 465 466 0
1 465 351 0
1 461 -350 0
1 -461 357 0
1 461 467 0
1 468 -469 0
1 -470 471 0
1 -470 -461 0
1 -470 -462 0
1 346 -472 0
1 467 473 0
1 474 -475 0
1 -356 256 0
1 -476 477 0
1 476 -478 0
1 -479 480 0
1 479 481 0
1 -479 -476 0
1 -469 482 0
1 -475 474 0
1 475 483 0
1 -484 485 0
1 -486 485 0
1 -481 -480 0
1 -481 487 0
1 480 488 0
1 -489 -490 0
1 -478 -480 0
1 478 -491 0
1 492 -493 0
1 -494 -495 0
1 -494 496 0
1 497 -498 0
1 -497 -499 0
1 500 487 0
1 -487 501 0
1 -487 502 0
1 361 -503 0
1 -488 504 0
1 488 481 0
1 -505 506 0
1 505 -365 0
1 -507 508 0
1 507 -509 0
1 510 509 0
1 -511 -512 0
1 -513 -506 0
1 514 507 0
1 -514 -510 0
1 -509 -515 0
1 -516 517 0
1 -516 518 0
1 516 509 0
1 -519 520 0
1 -519 -378 0
1 -519 374 0
1 -521 -382 0
1 -522 -509 0
1 -523 -505 0
1 -523 -524 0
1 523 -525 0
1 374 526 0
1 374 -366 0
1 374 377 0
1 378 527 0
1 -378 -372 0
1 -382 -376 0
1 -382 -378 0
1 -518 -528 0
1 -518 -515 0
1 -515 378 0
1 517 -529 0
1 -530 285 0
1 530 364 0
1 -531 -532 0
1 -533 534 0
1 -527 368 0
1 527 -535 0
1 536 537 0
1 536 -534 0
1 -538 -527 0
1 -538 -539 0
1 -539 -538 0
1 -539 534 0
1 -540 -541 0
1 540 -542 0
1 -540 -543 0
1 534 533 0
1 -534 542 0
1 -534 384 0
1 -537 533 0
1 537 -544 0
1 -537 545 0
1 537 538 0
1 -537 539 0
1 391 -546 0
1 391 -547 0
1 391 265 0
1 548 391 0
1 -398 -395 0
1 -543 -549 0
1 -547 -543 0
1 550 551 0
1 546 -552 0
1 -546 -550 0
1 -397 -547 0
1 397 553 0
1 -553 -554 0
1 -553 -555 0
1 -556 557 0
1 -556 558 0
1 -556 -559 0
1 -557 -560 0
1 554 561 0
1 561 -562 0
1 -563 398 0
1 563 553 0
1 -555 562 0
1 -555 -556 0
1 564 -560 0
1 564 558 0
1 -565 -402 0
1 565 566 0
1 -565 -407 0
1 -567 568 0
1 567 569 0
1 406 -554 0
1 -570 -571 0
1 570 -406 0
1 -558 572 0
1 560 -573 0
1 -574 -567 0
1 -574 560 0
1 574 395 0
1 -574 -573 0
1 -419 -418 0
1 419 571 0
1 -419 -416 0
1 -571 407 0
1 -571 416 0
1 572 -416 0
1 575 414 0
1 576 280 0
1 -569 415 0
1 -577 -567 0
1 577 -578 0
1 579 -421 0
1 579 414 0
1 580 581 0
1 -580 -582 0
1 -425 580 0
1 583 -579 0
1 -583 -580 0
1 584 -585 0
1 -584 -586 0
1 -587 588 0
1 589 -407 0
1 -589 572 0
1 -437 -585 0
1 437 -428 0
1 437 -436 0
1 -437 -429 0
1 585 -421 0
1 -585 -583 0
1 586 -590 0
1 -586 -584 0
1 -435 591 0
1 -581 592 0
1 581 585 0
1 -581 -593 0
1 594 -437 0
1 -595 -434 0
1 595 596 0
1 595 -597 0
1 -434 -581 0
1 -434 -591 0
1 -598 -599 0
1 -592 -591 0
1 592 -600 0
1 -601 -592 0
1 601 -598 0
1 -601 595 0
1 596 -602 0
1 596 603 0
1 -596 -601 0
1 424 -592 0
1 424 435 0
1 -424 591 0
1 424 -595 0
1 591 -604 0
1 591 -605 0
1 603 -596 0
1 603 -606 0
1 -603 -601 0
1 -602 442 0
1 602 596 0
1 607 -444 0
1 432 608 0
1 -432 -447 0
1 432 -602 0
1 -600 447 0
1 -600 598 0
1 -609 610 0
1 -609 611 0
1 612 452 0
1 -612 -444 0
1 -612 -453 0
1 -612 -613 0
1 -614 615 0
1 -614 -455 0
1 614 432 0
1 -455 -616 0
1 -455 -452 0
1 455 617 0
1 -455 -618 0
1 -455 -432 0
1 442 -602 0
1 -615 442 0
1 615 619 0
1 615 -454 0
1 -613 -447 0
1 613 455 0
1 -613 620 0
1 454 -453 0
1 -454 -450 0
1 -621 -622 0
1 623 442 0
1 -623 624 0
1 -616 -614 0
1 -616 625 0
1 -626 -472 0
1 626 616 0
1 626 -627 0
1 628 629 0
1 628 630 0
1 -628 -464 0
1 -473 626 0
1 473 631 0
1 -632 -622 0
1 -632 483 0
1 -632 627 0
1 622 -627 0
1 -629 621 0
1 -629 -473 0
1 -633 -621 0
1 -633 473 0
1 -482 -634 0
1 482 -635 0
1 -482 -622 0
1 -634 480 0
1 634 -622 0
1 -460 636 0
1 635 473 0
1 -496 -469 0
1 -493 -460 0
1 493 469 0
1 637 638 0
1 -637 -499 0
1 637 -639 0
1 637 -631 0
1 471 -493 0
1 -471 640 0
1 641 642 0
1 641 643 0
1 641 644 0
1 645 -636 0
1 -645 640 0
1 645 646 0
1 647 648 0
1 -639 -643 0
1 639 649 0
1 -639 -650 0
1 639 -637 0
1 651 -643 0
1 -638 643 0
1 -638 -652 0
1 502 653 0
1 654 -653 0
1 654 490 0
1 490 653 0
1 490 654 0
1 653 -650 0
1 653 -502 0
1 -491 655 0
1 -656 657 0
1 656 649 0
1 656 -491 0
1 658 -653 0
1 -659 -490 0
1 660 657 0
1 660 661 0
1 661 501 0
1 -501 -661 0
1 662 -660 0
1 662 -663 0
1 -504 664 0
1 504 -665 0
1 -666 -667 0
1 -668 -669 0
1 670 671 0
1 672 -513 0
1 672 673 0
1 674 675 0
1 -675 -676 0
1 675 -670 0
1 677 -672 0
1 -677 678 0
1 679 510 0
1 680 -681 0
1 -524 -680 0
1 -524 -678 0
1 -682 508 0
1 682 -683 0
1 684 -685 0
1 -684 524 0
1 520 -530 0
1 686 -687 0
1 688 -686 0
1 689 -690 0
1 -689 -686 0
1 691 -524 0
1 -691 -686 0
1 691 -692 0
1 693 517 0
1 -693 694 0
1 529 -372 0
1 695 528 0
1 695 696 0
1 -695 697 0
1 697 -698 0
1 697 695 0
1 -698 693 0
1 -698 699 0
1 -700 695 0
1 700 -701 0
1 700 699 0
1 687 697 0
1 702 -703 0
1 702 -697 0
1 535 -372 0
1 -699 545 0
1 699 -704 0
1 699 705 0
1 -699 -706 0
1 707 708 0
1 -707 -528 0
1 -707 -699 0
1 704 545 0
1 -542 534 0
1 -709 540 0
1 552 -710 0
1 -552 -550 0
1 706 568 0
1 711 551 0
1 -711 712 0
1 -711 566 0
1 711 699 0
1 -705 710 0
1 705 552 0
1 551 541 0
1 551 -559 0
1 568 713 0
1 -712 -714 0
1 -715 -551 0
1 -715 -716 0
1 715 717 0
1 -713 551 0
1 -713 -544 0
1 713 718 0
1 544 537 0
1 -562 -715 0
1 -716 574 0
1 -716 -719 0
1 -717 720 0
1 -721 714 0
1 721 574 0
1 714 712 0
1 -719 -722 0
1 719 -721 0
1 720 722 0
1 -720 -723 0
1 720 -716 0
1 573 724 0
1 -573 558 0
1 725 573 0
1 -726 -727 0
1 726 582 0
1 -724 -728 0
1 -724 729 0
1 -724 -578 0
1 -730 -729 0
1 -730 -717 0
1 731 732 0
1 -733 -734 0
1 733 -735 0
1 -733 -736 0
1 737 -727 0
1 737 -736 0
1 -729 738 0
1 -727 -739 0
1 -727 740 0
1 -741 578 0
1 -742 743 0
1 742 -741 0
1 742 -744 0
1 597 -587 0
1 597 -734 0
1 -588 727 0
1 588 745 0
1 -588 584 0
1 746 -598 0
1 746 -747 0
1 739 -748 0
1 739 747 0
1 749 750 0
1 749 751 0
1 738 739 0
1 738 749 0
1 -738 752 0
1 745 -753 0
1 593 417 0
1 -593 -581 0
1 -593 -611 0
1 -754 755 0
1 756 757 0
1 -748 -758 0
1 -748 -752 0
1 -748 -759 0
1 747 -589 0
1 -747 754 0
1 747 751 0
1 605 -755 0
1 -760 -755 0
1 -760 -612 0
1 761 762 0
1 -618 -604 0
1 -763 -760 0
1 764 -765 0
1 764 605 0
1 -764 766 0
1 -767 -605 0
1 767 759 0
1 755 417 0
1 -755 768 0
1 755 -767 0
1 -755 618 0
1 608 769 0
1 -766 625 0
1 770 771 0
1 772 -773 0
1 -772 -613 0
1 -774 -775 0
1 -774 -776 0
1 774 777 0
1 -776 -774 0
1 776 778 0
1 604 -591 0
1 604 770 0
1 604 779 0
1 604 766 0
1 -619 442 0
1 -775 -774 0
1 780 -781 0
1 -780 624 0
1 -780 776 0
1 780 -473 0
1 780 782 0
1 -773 783 0
1 773 -784 0
1 773 -780 0
1 -773 -772 0
1 610 -780 0
1 785 786 0
1 -785 787 0
1 -785 -772 0
1 788 789 0
1 -790 629 0
1 791 781 0
1 -791 629 0
1 -783 -620 0
1 781 788 0
1 -792 -793 0
1 -620 613 0
1 620 -794 0
1 -620 795 0
1 -620 788 0
1 -782 -790 0
1 796 -797 0
1 -796 633 0
1 798 -781 0
1 798 629 0
1 -798 -792 0
1 -798 799 0
1 -793 800 0
1 793 -797 0
1 -801 -802 0
1 801 803 0
1 804 -805 0
1 -804 -646 0
1 -806 801 0
1 -806 807 0
1 797 798 0
1 636 631 0
1 808 -803 0
1 -808 -809 0
1 -805 810 0
1 805 -811 0
1 -800 805 0
1 800 -812 0
1 810 -636 0
1 -813 807 0
1 813 646 0
1 -640 800 0
1 -642 814 0
1 -642 815 0
1 -642 -640 0
1 642 651 0
1 -652 -650 0
1 652 816 0
1 817 -649 0
1 817 640 0
1 811 818 0
1 -819 805 0
1 -819 820 0
1 -649 821 0
1 -822 -639 0
1 -822 823 0
1 657 660 0
1 657 824 0
1 657 -825 0
1 -821 826 0
1 -821 -827 0
1 826 828 0
1 663 -504 0
1 663 821 0
1 663 824 0
1 663 490 0
1 -829 -830 0
1 831 -832 0
1 -833 -832 0
1 -833 -834 0
1 835 831 0
1 835 836 0
1 -835 -837 0
1 -838 -837 0
1 -830 -839 0
1 840 841 0
1 840 842 0
1 -837 -835 0
1 837 -843 0
1 844 -838 0
1 845 846 0
1 -841 847 0
1 -848 664 0
1 -848 849 0
1 850 684 0
1 -685 -684 0
1 -683 -851 0
1 -683 -852 0
1 853 -854 0
1 -853 683 0
1 855 856 0
1 -857 685 0
1 857 -667 0
1 -694 -851 0
1 694 855 0
1 858 695 0
1 856 859 0
1 -856 -854 0
1 856 -860 0
1 -856 697 0
1 851 677 0
1 -851 -861 0
1 854 862 0
1 -863 -864 0
1 -864 -858 0
1 -865 866 0
1 -865 -689 0
1 865 -702 0
1 867 -868 0
1 867 -687 0
1 -869 -854 0
1 869 860 0
1 869 -702 0
1 -866 869 0
1 870 867 0
1 -870 -871 0
1 -868 860 0
1 868 872 0
1 -860 -865 0
1 -860 873 0
1 -703 542 0
1 -703 690 0
1 703 704 0
1 874 875 0
1 -874 876 0
1 690 -689 0
1 -877 -878 0
1 877 -879 0
1 -877 869 0
1 -880 881 0
1 -880 701 0
1 882 -871 0
1 883 884 0
1 -883 -885 0
1 883 -886 0
1 879 884 0
1 879 887 0
1 879 888 0
1 -879 -886 0
1 889 -883 0
1 -885 -883 0
1 885 -882 0
1 885 874 0
1 -886 883 0
1 886 890 0
1 891 711 0
1 891 892 0
1 -891 -705 0
1 891 889 0
1 -893 -894 0
1 -893 895 0
1 -893 -896 0
1 -895 -897 0
1 884 898 0
1 884 -897 0
1 884 899 0
1 -900 901 0
1 -900 902 0
1 -903 904 0
1 -905 906 0
1 -899 -718 0
1 899 -907 0
1 899 904 0
1 -722 884 0
1 722 908 0
1 722 720 0
1 909 -706 0
1 -910 -711 0
1 -910 -911 0
1 -910 893 0
1 -910 735 0
1 896 -912 0
1 -896 -913 0
1 906 912 0
1 -736 737 0
1 911 -914 0
1 735 910 0
1 -735 908 0
1 -735 -915 0
1 -732 916 0
1 -732 -909 0
1 718 917 0
1 718 -918 0
1 908 911 0
1 -908 -899 0
1 734 -723 0
1 -734 -733 0
1 734 597 0
1 -728 -724 0
1 728 723 0
1 728 915 0
1 -744 -741 0
1 743 919 0
1 915 920 0
1 921 728 0
1 921 -740 0
1 921 -753 0
1 919 -728 0
1 -919 -723 0
1 919 -922 0
1 -723 732 0
1 723 -922 0
1 -740 923 0
1 -740 745 0
1 -740 915 0
1 924 923 0
1 -753 -745 0
1 925 752 0
1 -925 753 0
1 926 743 0
1 926 740 0
1 -923 927 0
1 928 -929 0
1 -930 931 0
1 752 -745 0
1 752 748 0
1 -752 932 0
1 -933 926 0
1 -934 -935 0
1 -936 -930 0
1 -937 938 0
1 -937 -939 0
1 -940 941 0
1 -940 942 0
1 -942 941 0
1 758 608 0
1 -943 -758 0
1 943 -756 0
1 -944 -755 0
1 -935 -945 0
1 -935 -946 0
1 947 948 0
1 -947 -938 0
1 -947 931 0
1 947 934 0
1 949 -630 0
1 950 -948 0
1 -950 -750 0
1 950 951 0
1 -779 780 0
1 -952 953 0
1 -954 -779 0
1 954 949 0
1 951 955 0
1 -956 -954 0
1 -956 -957 0
1 -958 -785 0
1 958 787 0
1 958 -777 0
1 958 959 0
1 787 610 0
1 -765 -960 0
1 -768 950 0
1 -794 -798 0
1 794 -773 0
1 -794 -957 0
1 -961 784 0
1 961 962 0
1 -961 -963 0
1 961 964 0
1 -961 620 0
1 802 964 0
1 -777 -802 0
1 -777 -958 0
1 778 -961 0
1 962 958 0
1 -965 -781 0
1 965 -966 0
1 967 -966 0
1 -968 -969 0
1 970 -805 0
1 970 806 0
1 -784 -971 0
1 -784 807 0
1 -964 -970 0
1 -964 968 0
1 786 967 0
1 -786 802 0
1 -786 -961 0
1 -807 -972 0
1 807 966 0
1 -814 -807 0
1 814 813 0
1 816 973 0
1 -816 -810 0
1 816 -813 0
1 816 974 0
1 -974 -975 0
1 -976 977 0
1 -976 -974 0
1 978 -814 0
1 978 970 0
1 -978 -979 0
1 -972 -980 0
1 972 -981 0
1 820 800 0
1 -812 982 0
1 -812 -983 0
1 -984 985 0
1 -984 -986 0
1 -987 984 0
1 -987 978 0
1 -988 -812 0
1 -982 -818 0
1 989 984 0
1 989 820 0
1 989 816 0
1 818 982 0
1 990 986 0
1 990 -979 0
1 -990 811 0
1 991 988 0
1 -991 992 0
1 993 -994 0
1 -993 803 0
1 -993 984 0
1 993 995 0
1 996 -984 0
1 986 -994 0
1 -986 984 0
1 -986 997 0
1 -998 -999 0
1 998 -821 0
1 834 -993 0
1 1000 -1001 0
1 1000 -1002 0
1 1000 -993 0
1 992 -1002 0
1 992 -843 0
1 1003 -994 0
1 1003 -1004 0
1 -1003 1005 0
1 -1003 -1006 0
1 -846 -1007 0
1 846 829 0
1 -832 831 0
1 832 -837 0
1 843 1001 0
1 843 -1007 0
1 -843 -1008 0
1 -843 -992 0
1 843 849 0
1 -1009 1001 0
1 1009 1007 0
1 1009 -992 0
1 -1007 -1002 0
1 861 1010 0
1 1011 -861 0
1 1011 -860 0
1 -1011 -1012 0
1 1013 1014 0
1 1015 1016 0
1 1017 1018 0
1 871 -1014 0
1 1019 -1017 0
1 -862 1020 0
1 862 -1019 0
1 1021 1022 0
1 -1014 -881 0
1 -1023 -1019 0
1 878 -1018 0
1 1020 894 0
1 1020 -1024 0
1 1020 -886 0
1 894 1025 0
1 -894 -893 0
1 1026 1027 0
1 1026 901 0
1 1026 1028 0
1 1026 890 0
1 -1029 -1023 0
1 -1030 1031 0
1 -890 -1025 0
1 -1028 885 0
1 -1028 1024 0
1 -1028 -886 0
1 -901 -1025 0
1 -1025 -1032 0
1 1025 -894 0
1 1033 894 0
1 1034 1020 0
1 -1034 -1035 0
1 1024 -1020 0
1 -1024 -1035 0
1 912 900 0
1 -912 896 0
1 -912 1031 0
1 912 903 0
1 -1036 902 0
1 1037 -1038 0
1 -1039 -897 0
1 -1039 1036 0
1 1040 -885 0
1 -1041 1042 0
1 -1041 -1043 0
1 1041 897 0
1 -1041 1044 0
1 1041 912 0
1 -1045 -1046 0
1 -1045 910 0
1 -1045 734 0
1 -1047 908 0
1 -1047 -1048 0
1 1047 718 0
1 -917 1049 0
1 917 1047 0
1 917 1050 0
1 -917 -1051 0
1 898 -917 0
1 902 917 0
1 -902 1052 0
1 -1053 -1054 0
1 1053 718 0
1 1053 907 0
1 1055 1048 0
1 -1056 1057 0
1 1056 -1048 0
1 1056 1051 0
1 922 -723 0
1 -922 1058 0
1 1054 917 0
1 1050 -1052 0
1 -1059 1060 0
1 -1061 -1062 0
1 -1061 1063 0
1 1058 -1064 0
1 1058 -1065 0
1 1058 1066 0
1 -1058 1056 0
1 -1058 1067 0
1 1060 908 0
1 -1060 -1068 0
1 929 925 0
1 -929 1069 0
1 -929 -1067 0
1 1067 -943 0
1 1065 953 0
1 1065 942 0
1 -1062 1065 0
1 -1070 -1071 0
1 1070 -919 0
1 1070 1072 0
1 -1073 -1065 0
1 1073 1074 0
1 941 -945 0
1 -941 -1062 0
1 -938 -940 0
1 -938 1075 0
1 -1076 1077 0
1 1076 -1078 0
1 1079 -1065 0
1 -927 -1076 0
1 -1080 -1071 0
1 1081 935 0
1 946 -1082 0
1 959 -1083 0
1 -959 1082 0
1 959 -951 0
1 1084 -1085 0
1 -1084 -939 0
1 939 -1086 0
1 -939 -1085 0
1 -939 -946 0
1 939 -1087 0
1 -1078 -1081 0
1 1087 768 0
1 -955 -1084 0
1 -1086 -802 0
1 -1083 -969 0
1 -1083 963 0
1 -1088 1089 0
1 -1090 -1091 0
1 1092 -962 0
1 -1092 1093 0
1 1094 1095 0
1 -969 1096 0
1 1097 -1098 0
1 1097 969 0
1 1097 962 0
1 1099 -1100 0
1 -1098 1094 0
1 1098 -1086 0
1 -1098 -963 0
1 -1101 1094 0
1 1101 -1086 0
1 -1101 -1082 0
1 -1101 -1092 0
1 -1093 1102 0
1 -1093 1092 0
1 1103 -1104 0
1 -1103 778 0
1 1103 1099 0
1 -1103 -1105 0
1 -1106 1098 0
1 -1106 1107 0
1 1106 -1105 0
1 975 960 0
1 -1108 975 0
1 960 -1097 0
1 -960 983 0
1 -1105 1097 0
1 1109 -969 0
1 -1109 -1110 0
1 1111 1112 0
1 -1111 983 0
1 -983 1113 0
1 985 -973 0
1 985 -984 0
1 -985 1114 0
1 1114 973 0
1 1114 -1115 0
1 -1114 1116 0
1 -1107 -985 0
1 -1107 1106 0
1 979 -976 0
1 979 -978 0
1 979 -1117 0
1 -1118 1116 0
1 1119 -981 0
1 -1117 1120 0
1 -971 1120 0
1 1116 -1121 0
1 1122 1123 0
1 -1120 -834 0
1 1120 982 0
1 -997 -1124 0
1 997 -1125 0
1 -977 997 0
1 -1126 -1127 0
1 -981 -1120 0
1 995 -1128 0
1 1006 -1125 0
1 1006 -1129 0
1 -1130 -1131 0
1 1132 994 0
1 1125 -994 0
1 -1133 1134 0
1 1135 901 0
1 -1136 -1035 0
1 1136 -1031 0
1 1137 1138 0
1 -1134 1139 0
1 -1031 -1137 0
1 -1031 1030 0
1 1031 1024 0
1 1035 -1034 0
1 -1035 -1030 0
1 1138 1022 0
1 1138 -1043 0
1 -1138 1137 0
1 -1138 1140 0
1 1141 -1140 0
1 -1022 -1142 0
1 -1022 -1143 0
1 -1144 1143 0
1 1044 -1145 0
1 1044 -1040 0
1 -1044 -1045 0
1 -1044 -1146 0
1 -1032 1141 0
1 1042 1147 0
1 1027 -1148 0
1 1027 -1057 0
1 1027 1140 0
1 -1149 -1150 0
1 1149 -1142 0
1 -1038 -1151 0
1 -1148 -1027 0
1 1148 -1147 0
1 1148 -1039 0
1 -1057 1152 0
1 -1057 -1153 0
1 1147 -1154 0
1 -1147 -1155 0
1 1151 1147 0
1 -1151 -1155 0
1 1151 -1156 0
1 -1157 1158 0
1 -1153 1158 0
1 -1153 -1024 0
1 1153 1159 0
1 -1155 -1147 0
1 -1155 -1160 0
1 -1052 -1147 0
1 1052 1050 0
1 1161 -1162 0
1 -1160 1037 0
1 1163 1164 0
1 -1069 -1165 0
1 1069 1050 0
1 1166 -1167 0
1 -1168 -1166 0
1 1168 1169 0
1 -1170 -1168 0
1 -1165 1171 0
1 -1169 1172 0
1 -1173 1069 0
1 -1173 -1168 0
1 -1064 1174 0
1 -1064 -1175 0
1 1064 -1063 0
1 1075 -1172 0
1 1171 1176 0
1 1175 -1177 0
1 -1175 -1178 0
1 1179 -1054 0
1 1179 1180 0
1 -1181 1182 0
1 1181 -1183 0
1 -1184 1080 0
1 1185 -1186 0
1 -1185 1179 0
1 1185 1178 0
1 1176 1187 0
1 1176 -1178 0
1 -1188 -1189 0
1 -1190 1178 0
1 -1068 -1185 0
1 1068 -1191 0
1 -1068 -1190 0
1 1189 -1192 0
1 1192 -1193 0
1 1192 1194 0
1 -1186 1195 0
1 1195 1196 0
1 1195 1189 0
1 1072 1178 0
1 -1095 1197 0
1 -1095 -939 0
1 1198 1193 0
1 1198 -1199 0
1 -1200 -1193 0
1 1193 1091 0
1 -1193 1095 0
1 -1201 1193 0
1 -1197 -927 0
1 1197 1200 0
1 -1197 -1198 0
1 1194 -1095 0
1 1089 -1202 0
1 1089 1201 0
1 -1091 1101 0
1 -1091 1203 0
1 -1204 1193 0
1 1204 1205 0
1 1204 -1101 0
1 1204 -1201 0
1 1102 1093 0
1 1206 1091 0
1 -1207 1206 0
1 -1207 1089 0
1 1199 1208 0
1 -1209 -1205 0
1 1210 1211 0
1 1210 -1105 0
1 -1210 -1207 0
1 1212 1207 0
1 1213 1209 0
1 1213 -1214 0
1 1215 -1216 0
1 -1215 1217 0
1 -1215 1210 0
1 -1205 1102 0
1 1205 -1208 0
1 -1205 -1218 0
1 -1205 1212 0
1 1219 -1208 0
1 1220 -960 0
1 -1220 -1215 0
1 -1217 -1221 0
1 1217 1222 0
1 1222 -1100 0
1 -1222 1112 0
1 -1222 -1223 0
1 1211 1224 0
1 1211 1220 0
1 -1211 -1210 0
1 1211 -1100 0
1 1225 1220 0
1 -1225 -1214 0
1 1225 -1222 0
1 -1226 -1224 0
1 1226 -1214 0
1 -1227 -1113 0
1 -1227 -1221 0
1 -1228 1120 0
1 1229 -1230 0
1 -1124 -1229 0
1 -1124 1100 0
1 1230 -1128 0
1 1231 -1232 0
1 1231 1224 0
1 -1233 -1234 0
1 1233 1228 0
1 -1235 981 0
1 1235 -1236 0
1 -1128 -1237 0
1 -1128 -1230 0
1 1238 1239 0
1 1240 -1235 0
1 -1240 1124 0
1 -1241 -1238 0
1 -1241 1128 0
1 1242 -1124 0
1 -1142 -1141 0
1 -1243 -1244 0
1 1245 -1246 0
1 -1247 1245 0
1 -1248 1249 0
1 1158 1246 0
1 1158 -1153 0
1 -1158 -1159 0
1 1250 1249 0
1 -1250 1248 0
1 1246 -1251 0
1 1246 -1252 0
1 1246 1159 0
1 1253 1254 0
1 -1253 1249 0
1 -1253 1255 0
1 1253 -1252 0
1 1154 -1256 0
1 1257 1258 0
1 1257 1259 0
1 1260 -1256 0
1 1260 -1259 0
1 -1260 1168 0
1 -1258 1261 0
1 1258 1154 0
1 -1258 -1257 0
1 1256 1262 0
1 1256 -1174 0
1 -1256 1258 0
1 -1256 -1263 0
1 -1264 -1265 0
1 1259 -1154 0
1 -1174 1258 0
1 -1174 1266 0
1 1172 -1267 0
1 1261 -1171 0
1 1261 1268 0
1 1261 1256 0
1 -1263 -1269 0
1 1270 1260 0
1 1271 -1260 0
1 -1272 -1273 0
1 1273 -1261 0
1 1273 1167 0
1 1274 1270 0
1 -1275 -1276 0
1 -1164 1263 0
1 -1277 -1175 0
1 1278 -1279 0
1 1278 -1190 0
1 -1278 1280 0
1 1280 -1281 0
1 1280 1192 0
1 1280 -1282 0
1 1282 1283 0
1 1282 -1284 0
1 -1285 -1286 0
1 1276 -1287 0
1 -1279 -1288 0
1 1191 1188 0
1 1286 1095 0
1 1289 -1290 0
1 1291 -1292 0
1 1281 -1293 0
1 1281 -1287 0
1 1281 1290 0
1 -1281 1283 0
1 1281 -1278 0
1 1202 -1186 0
1 -1202 1294 0
1 1295 1186 0
1 1295 -1091 0
1 1295 -1296 0
1 -1297 -1298 0
1 -1299 1300 0
1 -1299 1180 0
1 1299 1301 0
1 1294 1290 0
1 -1302 1303 0
1 1296 1295 0
1 -1296 -1304 0
1 -1305 -1293 0
1 1305 -1202 0
1 -1305 -1306 0
1 -1307 -1308 0
1 -1307 -1197 0
1 -1303 -1302 0
1 -1300 1309 0
1 1300 -1306 0
1 -1208 1310 0
1 -1208 -1199 0
1 1208 1311 0
1 -1312 1306 0
1 1313 1219 0
1 1223 -1308 0
1 -1223 1314 0
1 1223 1313 0
1 -1223 -1315 0
1 -1223 1219 0
1 -1316 1317 0
1 -1318 1319 0
1 1310 -1309 0
1 1310 -1312 0
1 1311 1309 0
1 -1216 1320 0
1 -1214 -1318 0
1 -1321 1318 0
1 -1321 -1320 0
1 1321 -1322 0
1 -1323 1237 0
1 1314 1216 0
1 -1314 1214 0
1 -1224 -1324 0
1 -1224 1322 0
1 -1237 1100 0
1 1232 1233 0
1 -1232 1231 0
1 -1232 1322 0
1 -1232 -1325 0
1 1234 -1325 0
1 1325 1215 0
1 -1218 -1232 0
1 -1218 -1205 0
1 -1326 -1252 0
1 1252 1253 0
1 -1327 1328 0
1 1327 1329 0
1 1329 -1330 0
1 -1329 -1331 0
1 -1332 1333 0
1 1331 1334 0
1 -1331 -1264 0
1 -1331 -1256 0
1 1335 -1336 0
1 -1328 1273 0
1 1334 -1337 0
1 1338 -1339 0
1 -1340 1265 0
1 -1340 1270 0
1 -1341 -1336 0
1 -1341 -1342 0
1 1343 1344 0
1 -1343 1336 0
1 1343 1269 0
1 1345 1346 0
1 -1345 -1347 0
1 -1345 -1328 0
1 -1342 1348 0
1 -1348 1345 0
1 -1348 -1349 0
1 1347 1286 0
1 1350 1351 0
1 1350 1352 0
1 -1350 -1342 0
1 1351 -1344 0
1 -1344 1353 0
1 1354 -1346 0
1 1355 1354 0
1 -1355 1348 0
1 -1356 -1287 0
1 1356 -1351 0
1 -1356 1357 0
1 -1287 1281 0
1 1287 1352 0
1 -1298 -1358 0
1 1353 1298 0
1 -1353 -1359 0
1 -1352 1360 0
1 -1352 -1361 0
1 1360 -1350 0
1 1360 -1352 0
1 -1360 -1361 0
1 -1362 1363 0
1 -1362 -1361 0
1 -1359 1362 0
1 1359 1356 0
1 1292 1364 0
1 -1365 -1364 0
1 1366 1367 0
1 1366 1368 0
1 1366 1305 0
1 -1284 1298 0
1 1284 1306 0
1 1364 -1365 0
1 -1364 -1298 0
1 -1358 -1369 0
1 -1304 1296 0
1 -1306 -1312 0
1 -1370 -1300 0
1 -1371 -1372 0
1 1371 -1364 0
1 -1372 1368 0
1 -1373 1291 0
1 -1367 -1366 0
1 -1374 -1310 0
1 -1374 -1372 0
1 -1375 -1376 0
1 1377 -1370 0
1 1377 -1378 0
1 -1319 -1316 0
1 -1376 -1379 0
1 -1376 -1310 0
1 -1380 -1375 0
1 1381 -1308 0
1 -1381 1319 0
1 -1382 -1374 0
1 -1383 1379 0
1 -1383 1384 0
1 -1385 -1386 0
1 -1385 -1336 0
1 1387 -1388 0
1 -1389 1357 0
1 1389 -1390 0
1 -1357 1342 0
1 1391 1392 0
1 1388 1393 0
1 1394 1346 0
1 -1395 -1396 0
1 -1395 1390 0
1 -1397 -1385 0
1 1392 -1346 0
1 -1363 -1398 0
1 -1363 -1399 0
1 -1400 1394 0
1 1396 1366 0
1 1401 -1402 0
1 -1393 -1396 0
1 -1393 1401 0
1 1399 1403 0
1 -1404 -1398 0
1 -1404 1363 0
1 -1405 -1406 0
1 -1405 1362 0
1 -1407 -1405 0
1 1407 1393 0
1 -1369 1370 0
1 1369 -1408 0
1 -1369 1409 0
1 1369 -1410 0
1 1410 -1401 0
1 1411 -1412 0
1 -1413 1355 0
1 1413 -1400 0
1 1414 -1415 0
1 1416 1411 0
1 -1417 -1409 0
1 1418 1352 0
1 1418 1410 0
1 1419 -1417 0
1 1420 -1369 0
1 -1420 -1410 0
1 -1421 1319 0
1 -1421 -1367 0
1 1422 1417 0
1 1423 -1421 0
1 -1423 1416 0
1 -1423 1424 0
1 -1423 -1417 0
1 1425 -1426 0
1 1425 1395 0
1 -1427 1369 0
1 1427 1428 0
1 1429 1430 0
1 1431 -1430 0
1 1431 1425 0
1 1432 -1433 0
1 -1432 1401 0
1 1432 1404 0
1 1434 1429 0
1 1435 -1436 0
1 -1435 -1417 0
1 1435 -1437 0
1 1438 -1435 0
1 1439 1440 0
1 1441 -1438 0
1 1441 1413 0
1 1442 1437 0
1 -1436 -1442 0
1 1436 1401 0
1 1403 -1442 0
1 -1403 -1443 0
1 -1437 1441 0
